peakDumbCharging = 25900; 
Machine = anon_enum(16); 
machineSpeed = [3700,3700,3700,3700,3700,3700,3700,3700,3700,3700,3700,3700,3700,3700,3700,3700]; 
machineLoad = [3700,3700,3700,3700,3700,3700,3700,3700,3700,3700,3700,3700,3700,3700,3700,3700]; 
Car = anon_enum(42); 
demandCar = [7400,5040,10200,4240,13240,5480,19000,15680,8360,2080,15360,3960,2240,15720,12280,11000,10360,3680,8600,10480,4720,200,10520,12160,3480,8520,13160,9600,7320,4920,5320,12000,9360,13760,2080,5760,9360,23720,13240,3400,4760,8440]; 
arrivalCar = [74,68,68,67,63,63,62,62,59,59,57,57,56,56,55,54,54,54,51,49,48,48,48,47,46,45,44,44,43,42,41,41,39,38,37,37,36,35,32,32,32,27]; 
departureCar = [77,72,72,70,69,66,69,70,65,61,66,59,59,64,60,60,58,56,54,53,52,49,56,52,49,51,52,48,47,45,46,46,43,45,39,41,41,43,37,35,37,31]; 
